p cnf 936 2452
c uncontrollable inputs:
a 13 14 16 18 20 21 22 23 24 25 26 27 0
c state variables:
a 28 29 30 31 32 33 34 35 36 37 38 39 40 41 42 43 44 45 46 47 48 49 50 51 52 53 54 55 56 57 58 59 60 61 62 63 64 65 66 67 68 69 70 71 72 0
c next state variables:
a 73 74 75 76 77 78 79 80 81 82 83 84 85 86 87 88 89 90 91 92 93 94 95 96 97 98 99 100 101 102 103 104 105 106 107 108 109 110 111 112 113 114 115 116 117 0
c controllable inputs
d 1 13 14 16 18 20 21 22 23 24 25 26 27 28 29 30 31 32 33 34 35 36 37 38 39 40 41 42 43 44 45 46 47 48 49 50 51 52 53 54 55 56 57 58 59 60 61 62 63 64 65 66 67 68 69 70 71 72 0
d 2 13 14 16 18 20 21 22 23 24 25 26 27 28 29 30 31 32 33 34 35 36 37 38 39 40 41 42 43 44 45 46 47 48 49 50 51 52 53 54 55 56 57 58 59 60 61 62 63 64 65 66 67 68 69 70 71 72 0
d 3 13 14 16 18 20 21 22 23 24 25 26 27 28 29 30 31 32 33 34 35 36 37 38 39 40 41 42 43 44 45 46 47 48 49 50 51 52 53 54 55 56 57 58 59 60 61 62 63 64 65 66 67 68 69 70 71 72 0
d 4 13 14 16 18 20 21 22 23 24 25 26 27 28 29 30 31 32 33 34 35 36 37 38 39 40 41 42 43 44 45 46 47 48 49 50 51 52 53 54 55 56 57 58 59 60 61 62 63 64 65 66 67 68 69 70 71 72 0
d 5 13 14 16 18 20 21 22 23 24 25 26 27 28 29 30 31 32 33 34 35 36 37 38 39 40 41 42 43 44 45 46 47 48 49 50 51 52 53 54 55 56 57 58 59 60 61 62 63 64 65 66 67 68 69 70 71 72 0
d 6 13 14 16 18 20 21 22 23 24 25 26 27 28 29 30 31 32 33 34 35 36 37 38 39 40 41 42 43 44 45 46 47 48 49 50 51 52 53 54 55 56 57 58 59 60 61 62 63 64 65 66 67 68 69 70 71 72 0
d 7 13 14 16 18 20 21 22 23 24 25 26 27 28 29 30 31 32 33 34 35 36 37 38 39 40 41 42 43 44 45 46 47 48 49 50 51 52 53 54 55 56 57 58 59 60 61 62 63 64 65 66 67 68 69 70 71 72 0
d 8 13 14 16 18 20 21 22 23 24 25 26 27 28 29 30 31 32 33 34 35 36 37 38 39 40 41 42 43 44 45 46 47 48 49 50 51 52 53 54 55 56 57 58 59 60 61 62 63 64 65 66 67 68 69 70 71 72 0
d 9 13 14 16 18 20 21 22 23 24 25 26 27 28 29 30 31 32 33 34 35 36 37 38 39 40 41 42 43 44 45 46 47 48 49 50 51 52 53 54 55 56 57 58 59 60 61 62 63 64 65 66 67 68 69 70 71 72 0
d 10 13 14 16 18 20 21 22 23 24 25 26 27 28 29 30 31 32 33 34 35 36 37 38 39 40 41 42 43 44 45 46 47 48 49 50 51 52 53 54 55 56 57 58 59 60 61 62 63 64 65 66 67 68 69 70 71 72 0
d 11 13 14 16 18 20 21 22 23 24 25 26 27 28 29 30 31 32 33 34 35 36 37 38 39 40 41 42 43 44 45 46 47 48 49 50 51 52 53 54 55 56 57 58 59 60 61 62 63 64 65 66 67 68 69 70 71 72 0
d 12 13 14 16 18 20 21 22 23 24 25 26 27 28 29 30 31 32 33 34 35 36 37 38 39 40 41 42 43 44 45 46 47 48 49 50 51 52 53 54 55 56 57 58 59 60 61 62 63 64 65 66 67 68 69 70 71 72 0
d 15 13 14 16 18 20 21 22 23 24 25 26 27 28 29 30 31 32 33 34 35 36 37 38 39 40 41 42 43 44 45 46 47 48 49 50 51 52 53 54 55 56 57 58 59 60 61 62 63 64 65 66 67 68 69 70 71 72 0
d 17 13 14 16 18 20 21 22 23 24 25 26 27 28 29 30 31 32 33 34 35 36 37 38 39 40 41 42 43 44 45 46 47 48 49 50 51 52 53 54 55 56 57 58 59 60 61 62 63 64 65 66 67 68 69 70 71 72 0
d 19 13 14 16 18 20 21 22 23 24 25 26 27 28 29 30 31 32 33 34 35 36 37 38 39 40 41 42 43 44 45 46 47 48 49 50 51 52 53 54 55 56 57 58 59 60 61 62 63 64 65 66 67 68 69 70 71 72 0
c winning region (state)
d 118 28 29 30 31 32 33 34 35 36 37 38 39 40 41 42 43 44 45 46 47 48 49 50 51 52 53 54 55 56 57 58 59 60 61 62 63 64 65 66 67 68 69 70 71 72 0
c winning region (next state)
d 119 73 74 75 76 77 78 79 80 81 82 83 84 85 86 87 88 89 90 91 92 93 94 95 96 97 98 99 100 101 102 103 104 105 106 107 108 109 110 111 112 113 114 115 116 117 0
c tseitin variables
e 120 121 122 123 124 125 126 127 128 129 130 131 132 133 134 135 136 137 138 139 140 141 142 143 144 145 146 147 148 149 150 151 152 153 154 155 156 157 158 159 160 161 162 163 164 165 166 167 168 169 170 171 172 173 174 175 176 177 178 179 180 181 182 183 184 185 186 187 188 189 190 191 192 193 194 195 196 197 198 199 200 201 202 203 204 205 206 207 208 209 210 211 212 213 214 215 216 217 218 219 220 221 222 223 224 225 226 227 228 229 230 231 232 233 234 235 236 237 238 239 240 241 242 243 244 245 246 247 248 249 250 251 252 253 254 255 256 257 258 259 260 261 262 263 264 265 266 267 268 269 270 271 272 273 274 275 276 277 278 279 280 281 282 283 284 285 286 287 288 289 290 291 292 293 294 295 296 297 298 299 300 301 302 303 304 305 306 307 308 309 310 311 312 313 314 315 316 317 318 319 320 321 322 323 324 325 326 327 328 329 330 331 332 333 334 335 336 337 338 339 340 341 342 343 344 345 346 347 348 349 350 351 352 353 354 355 356 357 358 359 360 361 362 363 364 365 366 367 368 369 370 371 372 373 374 375 376 377 378 379 380 381 382 383 384 385 386 387 388 389 390 391 392 393 394 395 396 397 398 399 400 401 402 403 404 405 406 407 408 409 410 411 412 413 414 415 416 417 418 419 420 421 422 423 424 425 426 427 428 429 430 431 432 433 434 435 436 437 438 439 440 441 442 443 444 445 446 447 448 449 450 451 452 453 454 455 456 457 458 459 460 461 462 463 464 465 466 467 468 469 470 471 472 473 474 475 476 477 478 479 480 481 482 483 484 485 486 487 488 489 490 491 492 493 494 495 496 497 498 499 500 501 502 503 504 505 506 507 508 509 510 511 512 513 514 515 516 517 518 519 520 521 522 523 524 525 526 527 528 529 530 531 532 533 534 535 536 537 538 539 540 541 542 543 544 545 546 547 548 549 550 551 552 553 554 555 556 557 558 559 560 561 562 563 564 565 566 567 568 569 570 571 572 573 574 575 576 577 578 579 580 581 582 583 584 585 586 587 588 589 590 591 592 593 594 595 596 597 598 599 600 601 602 603 604 605 606 607 608 609 610 611 612 613 614 615 616 617 618 619 620 621 622 623 624 625 626 627 628 629 630 631 632 633 634 635 636 637 638 639 640 641 642 643 644 645 646 647 648 649 650 651 652 653 654 655 656 657 658 659 660 661 662 663 664 665 666 667 668 669 670 671 672 673 674 675 676 677 678 679 680 681 682 683 684 685 686 687 688 689 690 691 692 693 694 695 696 697 698 699 700 701 702 703 704 705 706 707 708 709 710 711 712 713 714 715 716 717 718 719 720 721 722 723 724 725 726 727 728 729 730 731 732 733 734 735 736 737 738 739 740 741 742 743 744 745 746 747 748 749 750 751 752 753 754 755 756 757 758 759 760 761 762 763 764 765 766 767 768 769 770 771 772 773 774 775 776 777 778 779 780 781 782 783 784 785 786 787 788 789 790 791 792 793 794 795 796 797 798 799 800 801 802 803 804 805 806 807 808 809 810 811 812 813 814 815 816 817 818 819 820 821 822 823 824 825 826 827 828 829 830 831 832 833 834 835 836 837 838 839 840 841 842 843 844 845 846 847 848 849 850 851 852 853 854 855 856 857 858 859 860 861 862 863 864 865 866 867 868 869 870 871 872 873 874 875 876 877 878 879 880 881 882 883 884 885 886 887 888 889 890 891 892 893 894 895 896 897 898 899 900 901 902 903 904 905 906 907 908 909 910 911 912 913 914 915 916 917 918 919 920 921 922 923 924 925 926 927 928 929 930 931 932 933 934 935 936 0
c clauses:
-120 -105 0
-120 60 0
120 105 -60 0
-121 105 0
-121 -60 0
121 -105 60 0
-122 -120 0
-122 -121 0
122 120 121 0
-123 -106 0
-123 61 0
123 106 -61 0
-124 106 0
-124 -61 0
124 -106 61 0
-125 -123 0
-125 -124 0
125 123 124 0
-126 122 0
-126 125 0
126 -122 -125 0
-127 -107 0
-127 62 0
127 107 -62 0
-128 107 0
-128 -62 0
128 -107 62 0
-129 -127 0
-129 -128 0
129 127 128 0
-130 -108 0
-130 63 0
130 108 -63 0
-131 108 0
-131 -63 0
131 -108 63 0
-132 -130 0
-132 -131 0
132 130 131 0
-133 129 0
-133 132 0
133 -129 -132 0
-134 126 0
-134 133 0
134 -126 -133 0
-135 -109 0
-135 64 0
135 109 -64 0
-136 109 0
-136 -64 0
136 -109 64 0
-137 -135 0
-137 -136 0
137 135 136 0
-138 -110 0
-138 65 0
138 110 -65 0
-139 110 0
-139 -65 0
139 -110 65 0
-140 -138 0
-140 -139 0
140 138 139 0
-141 137 0
-141 140 0
141 -137 -140 0
-142 -111 0
-142 66 0
142 111 -66 0
-143 111 0
-143 -66 0
143 -111 66 0
-144 -142 0
-144 -143 0
144 142 143 0
-145 -112 0
-145 67 0
145 112 -67 0
-146 112 0
-146 -67 0
146 -112 67 0
-147 -145 0
-147 -146 0
147 145 146 0
-148 144 0
-148 147 0
148 -144 -147 0
-149 141 0
-149 148 0
149 -141 -148 0
-150 134 0
-150 149 0
150 -134 -149 0
-151 -117 0
-151 72 0
151 117 -72 0
-152 117 0
-152 -72 0
152 -117 72 0
-153 -151 0
-153 -152 0
153 151 152 0
-154 -113 0
-154 68 0
154 113 -68 0
-155 113 0
-155 -68 0
155 -113 68 0
-156 -154 0
-156 -155 0
156 154 155 0
-157 -114 0
-157 69 0
157 114 -69 0
-158 114 0
-158 -69 0
158 -114 69 0
-159 -157 0
-159 -158 0
159 157 158 0
-160 156 0
-160 159 0
160 -156 -159 0
-161 -115 0
-161 70 0
161 115 -70 0
-162 115 0
-162 -70 0
162 -115 70 0
-163 -161 0
-163 -162 0
163 161 162 0
-164 -116 0
-164 71 0
164 116 -71 0
-165 116 0
-165 -71 0
165 -116 71 0
-166 -164 0
-166 -165 0
166 164 165 0
-167 163 0
-167 166 0
167 -163 -166 0
-168 160 0
-168 167 0
168 -160 -167 0
-169 153 0
-169 168 0
169 -153 -168 0
-170 150 0
-170 169 0
170 -150 -169 0
-171 -73 0
-171 28 0
171 73 -28 0
-172 73 0
-172 -28 0
172 -73 28 0
-173 -171 0
-173 -172 0
173 171 172 0
-174 -74 0
-174 29 0
174 74 -29 0
-175 74 0
-175 -29 0
175 -74 29 0
-176 -174 0
-176 -175 0
176 174 175 0
-177 173 0
-177 176 0
177 -173 -176 0
-178 -75 0
-178 30 0
178 75 -30 0
-179 75 0
-179 -30 0
179 -75 30 0
-180 -178 0
-180 -179 0
180 178 179 0
-181 -76 0
-181 31 0
181 76 -31 0
-182 76 0
-182 -31 0
182 -76 31 0
-183 -181 0
-183 -182 0
183 181 182 0
-184 180 0
-184 183 0
184 -180 -183 0
-185 177 0
-185 184 0
185 -177 -184 0
-186 -77 0
-186 32 0
186 77 -32 0
-187 77 0
-187 -32 0
187 -77 32 0
-188 -186 0
-188 -187 0
188 186 187 0
-189 -78 0
-189 33 0
189 78 -33 0
-190 78 0
-190 -33 0
190 -78 33 0
-191 -189 0
-191 -190 0
191 189 190 0
-192 188 0
-192 191 0
192 -188 -191 0
-193 -79 0
-193 34 0
193 79 -34 0
-194 79 0
-194 -34 0
194 -79 34 0
-195 -193 0
-195 -194 0
195 193 194 0
-196 -80 0
-196 35 0
196 80 -35 0
-197 80 0
-197 -35 0
197 -80 35 0
-198 -196 0
-198 -197 0
198 196 197 0
-199 195 0
-199 198 0
199 -195 -198 0
-200 192 0
-200 199 0
200 -192 -199 0
-201 185 0
-201 200 0
201 -185 -200 0
-202 -81 0
-202 36 0
202 81 -36 0
-203 81 0
-203 -36 0
203 -81 36 0
-204 -202 0
-204 -203 0
204 202 203 0
-205 -82 0
-205 37 0
205 82 -37 0
-206 82 0
-206 -37 0
206 -82 37 0
-207 -205 0
-207 -206 0
207 205 206 0
-208 204 0
-208 207 0
208 -204 -207 0
-209 -83 0
-209 38 0
209 83 -38 0
-210 83 0
-210 -38 0
210 -83 38 0
-211 -209 0
-211 -210 0
211 209 210 0
-212 -84 0
-212 39 0
212 84 -39 0
-213 84 0
-213 -39 0
213 -84 39 0
-214 -212 0
-214 -213 0
214 212 213 0
-215 211 0
-215 214 0
215 -211 -214 0
-216 208 0
-216 215 0
216 -208 -215 0
-217 -85 0
-217 40 0
217 85 -40 0
-218 85 0
-218 -40 0
218 -85 40 0
-219 -217 0
-219 -218 0
219 217 218 0
-220 -86 0
-220 41 0
220 86 -41 0
-221 86 0
-221 -41 0
221 -86 41 0
-222 -220 0
-222 -221 0
222 220 221 0
-223 219 0
-223 222 0
223 -219 -222 0
-224 -87 0
-224 42 0
224 87 -42 0
-225 87 0
-225 -42 0
225 -87 42 0
-226 -224 0
-226 -225 0
226 224 225 0
-227 -88 0
-227 43 0
227 88 -43 0
-228 88 0
-228 -43 0
228 -88 43 0
-229 -227 0
-229 -228 0
229 227 228 0
-230 226 0
-230 229 0
230 -226 -229 0
-231 223 0
-231 230 0
231 -223 -230 0
-232 216 0
-232 231 0
232 -216 -231 0
-233 201 0
-233 232 0
233 -201 -232 0
-234 -89 0
-234 44 0
234 89 -44 0
-235 89 0
-235 -44 0
235 -89 44 0
-236 -234 0
-236 -235 0
236 234 235 0
-237 -90 0
-237 45 0
237 90 -45 0
-238 90 0
-238 -45 0
238 -90 45 0
-239 -237 0
-239 -238 0
239 237 238 0
-240 236 0
-240 239 0
240 -236 -239 0
-241 -91 0
-241 46 0
241 91 -46 0
-242 91 0
-242 -46 0
242 -91 46 0
-243 -241 0
-243 -242 0
243 241 242 0
-244 -92 0
-244 47 0
244 92 -47 0
-245 92 0
-245 -47 0
245 -92 47 0
-246 -244 0
-246 -245 0
246 244 245 0
-247 243 0
-247 246 0
247 -243 -246 0
-248 240 0
-248 247 0
248 -240 -247 0
-249 -93 0
-249 48 0
249 93 -48 0
-250 93 0
-250 -48 0
250 -93 48 0
-251 -249 0
-251 -250 0
251 249 250 0
-252 -94 0
-252 49 0
252 94 -49 0
-253 94 0
-253 -49 0
253 -94 49 0
-254 -252 0
-254 -253 0
254 252 253 0
-255 251 0
-255 254 0
255 -251 -254 0
-256 -95 0
-256 50 0
256 95 -50 0
-257 95 0
-257 -50 0
257 -95 50 0
-258 -256 0
-258 -257 0
258 256 257 0
-259 -96 0
-259 51 0
259 96 -51 0
-260 96 0
-260 -51 0
260 -96 51 0
-261 -259 0
-261 -260 0
261 259 260 0
-262 258 0
-262 261 0
262 -258 -261 0
-263 255 0
-263 262 0
263 -255 -262 0
-264 248 0
-264 263 0
264 -248 -263 0
-265 -97 0
-265 52 0
265 97 -52 0
-266 97 0
-266 -52 0
266 -97 52 0
-267 -265 0
-267 -266 0
267 265 266 0
-268 -98 0
-268 53 0
268 98 -53 0
-269 98 0
-269 -53 0
269 -98 53 0
-270 -268 0
-270 -269 0
270 268 269 0
-271 267 0
-271 270 0
271 -267 -270 0
-272 -99 0
-272 54 0
272 99 -54 0
-273 99 0
-273 -54 0
273 -99 54 0
-274 -272 0
-274 -273 0
274 272 273 0
-275 -100 0
-275 55 0
275 100 -55 0
-276 100 0
-276 -55 0
276 -100 55 0
-277 -275 0
-277 -276 0
277 275 276 0
-278 274 0
-278 277 0
278 -274 -277 0
-279 271 0
-279 278 0
279 -271 -278 0
-280 -101 0
-280 56 0
280 101 -56 0
-281 101 0
-281 -56 0
281 -101 56 0
-282 -280 0
-282 -281 0
282 280 281 0
-283 -102 0
-283 57 0
283 102 -57 0
-284 102 0
-284 -57 0
284 -102 57 0
-285 -283 0
-285 -284 0
285 283 284 0
-286 282 0
-286 285 0
286 -282 -285 0
-287 -103 0
-287 58 0
287 103 -58 0
-288 103 0
-288 -58 0
288 -103 58 0
-289 -287 0
-289 -288 0
289 287 288 0
-290 -104 0
-290 59 0
290 104 -59 0
-291 104 0
-291 -59 0
291 -104 59 0
-292 -290 0
-292 -291 0
292 290 291 0
-293 289 0
-293 292 0
293 -289 -292 0
-294 286 0
-294 293 0
294 -286 -293 0
-295 279 0
-295 294 0
295 -279 -294 0
-296 264 0
-296 295 0
296 -264 -295 0
-297 233 0
-297 296 0
297 -233 -296 0
-298 170 0
-298 297 0
298 -170 -297 0
-299 119 0
-299 -118 0
299 -119 118 0
-300 -119 0
-300 118 0
300 119 -118 0
-301 -299 0
-301 -300 0
301 299 300 0
-302 298 0
-302 -301 0
302 -298 301 0
-303 58 0
-303 28 0
303 -58 -28 0
-304 -33 0
-304 303 0
304 33 -303 0
-305 26 0
-305 -12 0
305 -26 12 0
-306 -26 0
-306 12 0
306 26 -12 0
-307 -305 0
-307 -306 0
307 305 306 0
-308 63 0
-308 28 0
308 -63 -28 0
-309 -307 0
-309 -308 0
309 307 308 0
-310 24 0
-310 -10 0
310 -24 10 0
-311 -24 0
-311 10 0
311 24 -10 0
-312 -310 0
-312 -311 0
312 310 311 0
-313 42 0
-313 28 0
313 -42 -28 0
-314 -312 0
-314 -313 0
314 312 313 0
-315 23 0
-315 -8 0
315 -23 8 0
-316 -23 0
-316 8 0
316 23 -8 0
-317 -315 0
-317 -316 0
317 315 316 0
-318 29 0
-318 28 0
318 -29 -28 0
-319 -317 0
-319 -318 0
319 317 318 0
-320 21 0
-320 -7 0
320 -21 7 0
-321 -21 0
-321 7 0
321 21 -7 0
-322 -320 0
-322 -321 0
322 320 321 0
-323 59 0
-323 28 0
323 -59 -28 0
-324 -322 0
-324 -323 0
324 322 323 0
-325 20 0
-325 -6 0
325 -20 6 0
-326 -20 0
-326 6 0
326 20 -6 0
-327 -325 0
-327 -326 0
327 325 326 0
-328 38 0
-328 28 0
328 -38 -28 0
-329 -327 0
-329 -328 0
329 327 328 0
-330 18 0
-330 -5 0
330 -18 5 0
-331 -18 0
-331 5 0
331 18 -5 0
-332 -330 0
-332 -331 0
332 330 331 0
-333 69 0
-333 28 0
333 -69 -28 0
-334 -332 0
-334 -333 0
334 332 333 0
-335 16 0
-335 -4 0
335 -16 4 0
-336 -16 0
-336 4 0
336 16 -4 0
-337 -335 0
-337 -336 0
337 335 336 0
-338 48 0
-338 28 0
338 -48 -28 0
-339 -337 0
-339 -338 0
339 337 338 0
-340 -14 0
-340 -3 0
340 14 3 0
-341 14 0
-341 3 0
341 -14 -3 0
342 -340 0
342 -341 0
-342 340 341 0
-343 36 0
-343 28 0
343 -36 -28 0
-344 -342 0
-344 -343 0
344 342 343 0
-345 -339 0
-345 -344 0
345 339 344 0
-346 -334 0
-346 345 0
346 334 -345 0
-347 -329 0
-347 346 0
347 329 -346 0
-348 -324 0
-348 347 0
348 324 -347 0
-349 -319 0
-349 348 0
349 319 -348 0
-350 -314 0
-350 349 0
350 314 -349 0
-351 -309 0
-351 350 0
351 309 -350 0
-352 -304 0
-352 351 0
352 304 -351 0
-353 33 0
-353 28 0
353 -33 -28 0
-354 -303 0
-354 -353 0
354 303 353 0
-355 307 0
-355 -308 0
355 -307 308 0
-356 312 0
-356 -313 0
356 -312 313 0
-357 317 0
-357 -318 0
357 -317 318 0
-358 322 0
-358 -323 0
358 -322 323 0
-359 327 0
-359 -328 0
359 -327 328 0
-360 332 0
-360 -333 0
360 -332 333 0
-361 337 0
-361 -338 0
361 -337 338 0
-362 342 0
-362 -343 0
362 -342 343 0
-363 -361 0
-363 -362 0
363 361 362 0
-364 -360 0
-364 363 0
364 360 -363 0
-365 -359 0
-365 364 0
365 359 -364 0
-366 -358 0
-366 365 0
366 358 -365 0
-367 -357 0
-367 366 0
367 357 -366 0
-368 -356 0
-368 367 0
368 356 -367 0
-369 -355 0
-369 368 0
369 355 -368 0
-370 -354 0
-370 369 0
370 354 -369 0
-371 60 0
-371 28 0
371 -60 -28 0
-372 -25 0
-372 11 0
372 25 -11 0
-373 25 0
-373 -11 0
373 -25 11 0
-374 -372 0
-374 -373 0
374 372 373 0
-375 34 0
-375 28 0
375 -34 -28 0
-376 -374 0
-376 -375 0
376 374 375 0
-377 -27 0
-377 9 0
377 27 -9 0
-378 27 0
-378 -9 0
378 -27 9 0
-379 -377 0
-379 -378 0
379 377 378 0
-380 52 0
-380 28 0
380 -52 -28 0
-381 -379 0
-381 -380 0
381 379 380 0
-382 -376 0
-382 -381 0
382 376 381 0
-383 371 0
-383 -382 0
383 -371 382 0
-384 -371 0
-384 382 0
384 371 -382 0
-385 -383 0
-385 -384 0
385 383 384 0
-386 370 0
-386 -385 0
386 -370 385 0
-387 -352 0
-387 386 0
387 352 -386 0
-388 -105 0
-388 387 0
388 105 -387 0
-389 105 0
-389 -387 0
389 -105 387 0
-390 -388 0
-390 -389 0
390 388 389 0
-391 -61 0
-391 371 0
391 61 -371 0
-392 391 0
-392 382 0
392 -391 -382 0
-393 61 0
-393 28 0
393 -61 -28 0
-394 60 0
-394 382 0
394 -60 -382 0
-395 393 0
-395 -394 0
395 -393 394 0
-396 -392 0
-396 -395 0
396 392 395 0
-397 370 0
-397 -396 0
397 -370 396 0
-398 -352 0
-398 397 0
398 352 -397 0
-399 -106 0
-399 398 0
399 106 -398 0
-400 106 0
-400 -398 0
400 -106 398 0
-401 -399 0
-401 -400 0
401 399 400 0
-402 390 0
-402 401 0
402 -390 -401 0
-403 -107 0
-403 1 0
403 107 -1 0
-404 107 0
-404 -1 0
404 -107 1 0
-405 -403 0
-405 -404 0
405 403 404 0
-406 -309 0
-406 -352 0
406 309 352 0
-407 -108 0
-407 406 0
407 108 -406 0
-408 108 0
-408 -406 0
408 -108 406 0
-409 -407 0
-409 -408 0
409 407 408 0
-410 405 0
-410 409 0
410 -405 -409 0
-411 402 0
-411 410 0
411 -402 -410 0
-412 -109 0
-412 10 0
412 109 -10 0
-413 109 0
-413 -10 0
413 -109 10 0
-414 -412 0
-414 -413 0
414 412 413 0
-415 -110 0
-415 18 0
415 110 -18 0
-416 110 0
-416 -18 0
416 -110 18 0
-417 -415 0
-417 -416 0
417 415 416 0
-418 414 0
-418 417 0
418 -414 -417 0
-419 -111 0
-419 12 0
419 111 -12 0
-420 111 0
-420 -12 0
420 -111 12 0
-421 -419 0
-421 -420 0
421 419 420 0
-422 67 0
-422 28 0
422 -67 -28 0
-423 37 0
-423 28 0
423 -37 -28 0
-424 -13 0
-424 423 0
424 13 -423 0
-425 13 0
-425 -423 0
425 -13 423 0
-426 -424 0
-426 -425 0
426 424 425 0
-427 54 0
-427 28 0
427 -54 -28 0
-428 -22 0
-428 427 0
428 22 -427 0
-429 22 0
-429 -427 0
429 -22 427 0
-430 -428 0
-430 -429 0
430 428 429 0
-431 426 0
-431 430 0
431 -426 -430 0
-432 62 0
-432 28 0
432 -62 -28 0
-433 -50 0
-433 432 0
433 50 -432 0
-434 50 0
-434 28 0
434 -50 -28 0
-435 -62 0
-435 434 0
435 62 -434 0
-436 -433 0
-436 -435 0
436 433 435 0
-437 -431 0
-437 436 0
437 431 -436 0
-438 22 0
-438 433 0
438 -22 -433 0
-439 -13 0
-439 435 0
439 13 -435 0
-440 32 0
-440 28 0
440 -32 -28 0
-441 -25 0
-441 440 0
441 25 -440 0
-442 31 0
-442 441 0
442 -31 -441 0
-443 31 0
-443 28 0
443 -31 -28 0
-444 25 0
-444 -443 0
444 -25 443 0
-445 72 0
-445 28 0
445 -72 -28 0
-446 -27 0
-446 445 0
446 27 -445 0
-447 70 0
-447 446 0
447 -70 -446 0
-448 70 0
-448 28 0
448 -70 -28 0
-449 27 0
-449 -448 0
449 -27 448 0
-450 66 0
-450 28 0
450 -66 -28 0
-451 26 0
-451 450 0
451 -26 -450 0
-452 40 0
-452 28 0
452 -40 -28 0
-453 -66 0
-453 452 0
453 66 -452 0
-454 -26 0
-454 453 0
454 26 -453 0
-455 64 0
-455 28 0
455 -64 -28 0
-456 24 0
-456 455 0
456 -24 -455 0
-457 44 0
-457 28 0
457 -44 -28 0
-458 -64 0
-458 457 0
458 64 -457 0
-459 -24 0
-459 458 0
459 24 -458 0
-460 56 0
-460 28 0
460 -56 -28 0
-461 23 0
-461 460 0
461 -23 -460 0
-462 47 0
-462 28 0
462 -47 -28 0
-463 -56 0
-463 462 0
463 56 -462 0
-464 -23 0
-464 463 0
464 23 -463 0
-465 51 0
-465 28 0
465 -51 -28 0
-466 21 0
-466 465 0
466 -21 -465 0
-467 53 0
-467 28 0
467 -53 -28 0
-468 -51 0
-468 467 0
468 51 -467 0
-469 -21 0
-469 468 0
469 21 -468 0
-470 46 0
-470 28 0
470 -46 -28 0
-471 20 0
-471 470 0
471 -20 -470 0
-472 57 0
-472 28 0
472 -57 -28 0
-473 -46 0
-473 472 0
473 46 -472 0
-474 -20 0
-474 473 0
474 20 -473 0
-475 43 0
-475 28 0
475 -43 -28 0
-476 18 0
-476 475 0
476 -18 -475 0
-477 65 0
-477 28 0
477 -65 -28 0
-478 -43 0
-478 477 0
478 43 -477 0
-479 -18 0
-479 478 0
479 18 -478 0
-480 39 0
-480 28 0
480 -39 -28 0
-481 16 0
-481 480 0
481 -16 -480 0
-482 68 0
-482 28 0
482 -68 -28 0
-483 -39 0
-483 482 0
483 39 -482 0
-484 -16 0
-484 483 0
484 16 -483 0
-485 35 0
-485 28 0
485 -35 -28 0
-486 14 0
-486 485 0
486 -14 -485 0
-487 71 0
-487 28 0
487 -71 -28 0
-488 -35 0
-488 487 0
488 35 -487 0
-489 -14 0
-489 488 0
489 14 -488 0
-490 -486 0
-490 -489 0
490 486 489 0
-491 -484 0
-491 490 0
491 484 -490 0
-492 -481 0
-492 491 0
492 481 -491 0
-493 -479 0
-493 492 0
493 479 -492 0
-494 -476 0
-494 493 0
494 476 -493 0
-495 -474 0
-495 494 0
495 474 -494 0
-496 -471 0
-496 495 0
496 471 -495 0
-497 -469 0
-497 496 0
497 469 -496 0
-498 -466 0
-498 497 0
498 466 -497 0
-499 -464 0
-499 498 0
499 464 -498 0
-500 -461 0
-500 499 0
500 461 -499 0
-501 -459 0
-501 500 0
501 459 -500 0
-502 -456 0
-502 501 0
502 456 -501 0
-503 -454 0
-503 502 0
503 454 -502 0
-504 -451 0
-504 503 0
504 451 -503 0
-505 -449 0
-505 504 0
505 449 -504 0
-506 -447 0
-506 505 0
506 447 -505 0
-507 -444 0
-507 506 0
507 444 -506 0
-508 -442 0
-508 507 0
508 442 -507 0
-509 -439 0
-509 508 0
509 439 -508 0
-510 -438 0
-510 509 0
510 438 -509 0
-511 -437 0
-511 510 0
511 437 -510 0
-512 -422 0
-512 511 0
512 422 -511 0
-513 -112 0
-513 -512 0
513 112 512 0
-514 112 0
-514 512 0
514 -112 -512 0
-515 -513 0
-515 -514 0
515 513 514 0
-516 421 0
-516 515 0
516 -421 -515 0
-517 418 0
-517 516 0
517 -418 -516 0
-518 411 0
-518 517 0
518 -411 -517 0
-519 -117 0
-519 27 0
519 117 -27 0
-520 117 0
-520 -27 0
520 -117 27 0
-521 -519 0
-521 -520 0
521 519 520 0
-522 -113 0
-522 16 0
522 113 -16 0
-523 113 0
-523 -16 0
523 -113 16 0
-524 -522 0
-524 -523 0
524 522 523 0
-525 -334 0
-525 -352 0
525 334 352 0
-526 -114 0
-526 525 0
526 114 -525 0
-527 114 0
-527 -525 0
527 -114 525 0
-528 -526 0
-528 -527 0
528 526 527 0
-529 524 0
-529 528 0
529 -524 -528 0
-530 -115 0
-530 9 0
530 115 -9 0
-531 115 0
-531 -9 0
531 -115 9 0
-532 -530 0
-532 -531 0
532 530 531 0
-533 -116 0
-533 14 0
533 116 -14 0
-534 116 0
-534 -14 0
534 -116 14 0
-535 -533 0
-535 -534 0
535 533 534 0
-536 532 0
-536 535 0
536 -532 -535 0
-537 529 0
-537 536 0
537 -529 -536 0
-538 521 0
-538 537 0
538 -521 -537 0
-539 518 0
-539 538 0
539 -518 -538 0
-540 -319 0
-540 -352 0
540 319 352 0
-541 -74 0
-541 540 0
541 74 -540 0
-542 74 0
-542 -540 0
542 -74 540 0
-543 -541 0
-543 -542 0
543 541 542 0
-544 73 0
-544 543 0
544 -73 -543 0
-545 41 0
-545 28 0
545 -41 -28 0
-546 -70 0
-546 545 0
546 70 -545 0
-547 443 0
-547 546 0
547 -443 -546 0
-548 -41 0
-548 448 0
548 41 -448 0
-549 -443 0
-549 548 0
549 443 -548 0
-550 30 0
-550 28 0
550 -30 -28 0
-551 -443 0
-551 -448 0
551 443 448 0
-552 -550 0
-552 -551 0
552 550 551 0
-553 -549 0
-553 -552 0
553 549 552 0
-554 -547 0
-554 553 0
554 547 -553 0
-555 -75 0
-555 554 0
555 75 -554 0
-556 75 0
-556 -554 0
556 -75 554 0
-557 -555 0
-557 -556 0
557 555 556 0
-558 -76 0
-558 11 0
558 76 -11 0
-559 76 0
-559 -11 0
559 -76 11 0
-560 -558 0
-560 -559 0
560 558 559 0
-561 557 0
-561 560 0
561 -557 -560 0
-562 544 0
-562 561 0
562 -544 -561 0
-563 -77 0
-563 25 0
563 77 -25 0
-564 77 0
-564 -25 0
564 -77 25 0
-565 -563 0
-565 -564 0
565 563 564 0
-566 -304 0
-566 -351 0
566 304 351 0
-567 -78 0
-567 566 0
567 78 -566 0
-568 78 0
-568 -566 0
568 -78 566 0
-569 -567 0
-569 -568 0
569 567 568 0
-570 565 0
-570 569 0
570 -565 -569 0
-571 -376 0
-571 381 0
571 376 -381 0
-572 370 0
-572 571 0
572 -370 -571 0
-573 -352 0
-573 572 0
573 352 -572 0
-574 -79 0
-574 573 0
574 79 -573 0
-575 79 0
-575 -573 0
575 -79 573 0
-576 -574 0
-576 -575 0
576 574 575 0
-577 -80 0
-577 3 0
577 80 -3 0
-578 80 0
-578 -3 0
578 -80 3 0
-579 -577 0
-579 -578 0
579 577 578 0
-580 576 0
-580 579 0
580 -576 -579 0
-581 570 0
-581 580 0
581 -570 -580 0
-582 562 0
-582 581 0
582 -562 -581 0
-583 -344 0
-583 -352 0
583 344 352 0
-584 -81 0
-584 583 0
584 81 -583 0
-585 81 0
-585 -583 0
585 -81 583 0
-586 -584 0
-586 -585 0
586 584 585 0
-587 -82 0
-587 13 0
587 82 -13 0
-588 82 0
-588 -13 0
588 -82 13 0
-589 -587 0
-589 -588 0
589 587 588 0
-590 586 0
-590 589 0
590 -586 -589 0
-591 -329 0
-591 -352 0
591 329 352 0
-592 -83 0
-592 591 0
592 83 -591 0
-593 83 0
-593 -591 0
593 -83 591 0
-594 -592 0
-594 -593 0
594 592 593 0
-595 -84 0
-595 4 0
595 84 -4 0
-596 84 0
-596 -4 0
596 -84 4 0
-597 -595 0
-597 -596 0
597 595 596 0
-598 594 0
-598 597 0
598 -594 -597 0
-599 590 0
-599 598 0
599 -590 -598 0
-600 -85 0
-600 26 0
600 85 -26 0
-601 85 0
-601 -26 0
601 -85 26 0
-602 -600 0
-602 -601 0
602 600 601 0
-603 -545 0
-603 -549 0
603 545 549 0
-604 -547 0
-604 -603 0
604 547 603 0
-605 -86 0
-605 604 0
605 86 -604 0
-606 86 0
-606 -604 0
606 -86 604 0
-607 -605 0
-607 -606 0
607 605 606 0
-608 602 0
-608 607 0
608 -602 -607 0
-609 -314 0
-609 -352 0
609 314 352 0
-610 -87 0
-610 609 0
610 87 -609 0
-611 87 0
-611 -609 0
611 -87 609 0
-612 -610 0
-612 -611 0
612 610 611 0
-613 -88 0
-613 5 0
613 88 -5 0
-614 88 0
-614 -5 0
614 -88 5 0
-615 -613 0
-615 -614 0
615 613 614 0
-616 612 0
-616 615 0
616 -612 -615 0
-617 608 0
-617 616 0
617 -608 -616 0
-618 599 0
-618 617 0
618 -599 -617 0
-619 582 0
-619 618 0
619 -582 -618 0
-620 -89 0
-620 24 0
620 89 -24 0
-621 89 0
-621 -24 0
621 -89 24 0
-622 -620 0
-622 -621 0
622 620 621 0
-623 -90 0
-623 15 0
623 90 -15 0
-624 90 0
-624 -15 0
624 -90 15 0
-625 -623 0
-625 -624 0
625 623 624 0
-626 622 0
-626 625 0
626 -622 -625 0
-627 -91 0
-627 6 0
627 91 -6 0
-628 91 0
-628 -6 0
628 -91 6 0
-629 -627 0
-629 -628 0
629 627 628 0
-630 -92 0
-630 23 0
630 92 -23 0
-631 92 0
-631 -23 0
631 -92 23 0
-632 -630 0
-632 -631 0
632 630 631 0
-633 629 0
-633 632 0
633 -629 -632 0
-634 626 0
-634 633 0
634 -626 -633 0
-635 -339 0
-635 -352 0
635 339 352 0
-636 -93 0
-636 635 0
636 93 -635 0
-637 93 0
-637 -635 0
637 -93 635 0
-638 -636 0
-638 -637 0
638 636 637 0
-639 -94 0
-639 17 0
639 94 -17 0
-640 94 0
-640 -17 0
640 -94 17 0
-641 -639 0
-641 -640 0
641 639 640 0
-642 638 0
-642 641 0
642 -638 -641 0
-643 -95 0
-643 2 0
643 95 -2 0
-644 95 0
-644 -2 0
644 -95 2 0
-645 -643 0
-645 -644 0
645 643 644 0
-646 -96 0
-646 7 0
646 96 -7 0
-647 96 0
-647 -7 0
647 -96 7 0
-648 -646 0
-648 -647 0
648 646 647 0
-649 645 0
-649 648 0
649 -645 -648 0
-650 642 0
-650 649 0
650 -642 -649 0
-651 634 0
-651 650 0
651 -634 -650 0
-652 376 0
-652 -381 0
652 -376 381 0
-653 370 0
-653 652 0
653 -370 -652 0
-654 -352 0
-654 653 0
654 352 -653 0
-655 -97 0
-655 654 0
655 97 -654 0
-656 97 0
-656 -654 0
656 -97 654 0
-657 -655 0
-657 -656 0
657 655 656 0
-658 -98 0
-658 21 0
658 98 -21 0
-659 98 0
-659 -21 0
659 -98 21 0
-660 -658 0
-660 -659 0
660 658 659 0
-661 657 0
-661 660 0
661 -657 -660 0
-662 -99 0
-662 22 0
662 99 -22 0
-663 99 0
-663 -22 0
663 -99 22 0
-664 -662 0
-664 -663 0
664 662 663 0
-665 -100 0
-665 19 0
665 100 -19 0
-666 100 0
-666 -19 0
666 -100 19 0
-667 -665 0
-667 -666 0
667 665 666 0
-668 664 0
-668 667 0
668 -664 -667 0
-669 661 0
-669 668 0
669 -661 -668 0
-670 -101 0
-670 8 0
670 101 -8 0
-671 101 0
-671 -8 0
671 -101 8 0
-672 -670 0
-672 -671 0
672 670 671 0
-673 -102 0
-673 20 0
673 102 -20 0
-674 102 0
-674 -20 0
674 -102 20 0
-675 -673 0
-675 -674 0
675 673 674 0
-676 672 0
-676 675 0
676 -672 -675 0
-677 -58 0
-677 423 0
677 58 -423 0
-678 -303 0
-678 -677 0
678 303 677 0
679 -432 0
679 -678 0
-679 432 678 0
-680 -103 0
-680 -679 0
680 103 679 0
-681 103 0
-681 679 0
681 -103 -679 0
-682 -680 0
-682 -681 0
682 680 681 0
-683 -324 0
-683 -352 0
683 324 352 0
-684 -104 0
-684 683 0
684 104 -683 0
-685 104 0
-685 -683 0
685 -104 683 0
-686 -684 0
-686 -685 0
686 684 685 0
-687 682 0
-687 686 0
687 -682 -686 0
-688 676 0
-688 687 0
688 -676 -687 0
-689 669 0
-689 688 0
689 -669 -688 0
-690 651 0
-690 689 0
690 -651 -689 0
-691 619 0
-691 690 0
691 -619 -690 0
-692 539 0
-692 691 0
692 -539 -691 0
-693 692 0
-693 300 0
693 -692 -300 0
-694 60 0
-694 393 0
694 -60 -393 0
-695 -13 0
-695 1 0
695 13 -1 0
-696 22 0
-696 -1 0
696 -22 1 0
-697 2 0
-697 696 0
697 -2 -696 0
-698 -441 0
-698 -446 0
698 441 446 0
-699 1 0
-699 698 0
699 -1 -698 0
-700 4 0
-700 -480 0
700 -4 480 0
-701 3 0
-701 -485 0
701 -3 485 0
-702 -700 0
-702 -701 0
702 700 701 0
-703 5 0
-703 -475 0
703 -5 475 0
-704 702 0
-704 -703 0
704 -702 703 0
-705 6 0
-705 -470 0
705 -6 470 0
-706 704 0
-706 -705 0
706 -704 705 0
-707 7 0
-707 -465 0
707 -7 465 0
-708 706 0
-708 -707 0
708 -706 707 0
-709 8 0
-709 -460 0
709 -8 460 0
-710 708 0
-710 -709 0
710 -708 709 0
-711 10 0
-711 -455 0
711 -10 455 0
-712 710 0
-712 -711 0
712 -710 711 0
-713 12 0
-713 -450 0
713 -12 450 0
-714 712 0
-714 -713 0
714 -712 713 0
-715 2 0
-715 714 0
715 -2 -714 0
-716 -41 0
-716 550 0
716 41 -550 0
-717 716 0
-717 443 0
717 -716 -443 0
-718 41 0
-718 550 0
718 -41 -550 0
-719 718 0
-719 448 0
719 -718 -448 0
-720 70 0
-720 443 0
720 -70 -443 0
-721 11 0
-721 440 0
721 -11 -440 0
-722 -32 0
-722 443 0
722 32 -443 0
-723 -11 0
-723 722 0
723 11 -722 0
-724 -72 0
-724 448 0
724 72 -448 0
-725 -9 0
-725 724 0
725 9 -724 0
-726 40 0
-726 450 0
726 -40 -450 0
-727 -12 0
-727 726 0
727 12 -726 0
-728 713 0
-728 -452 0
728 -713 452 0
-729 44 0
-729 455 0
729 -44 -455 0
-730 -10 0
-730 729 0
730 10 -729 0
-731 711 0
-731 -457 0
731 -711 457 0
-732 24 0
-732 -457 0
732 -24 457 0
-733 10 0
-733 732 0
733 -10 -732 0
-734 47 0
-734 460 0
734 -47 -460 0
-735 -8 0
-735 734 0
735 8 -734 0
-736 709 0
-736 -462 0
736 -709 462 0
-737 23 0
-737 -462 0
737 -23 462 0
-738 8 0
-738 737 0
738 -8 -737 0
-739 53 0
-739 465 0
739 -53 -465 0
-740 -7 0
-740 739 0
740 7 -739 0
-741 707 0
-741 -467 0
741 -707 467 0
-742 21 0
-742 -467 0
742 -21 467 0
-743 7 0
-743 742 0
743 -7 -742 0
-744 57 0
-744 470 0
744 -57 -470 0
-745 -6 0
-745 744 0
745 6 -744 0
-746 705 0
-746 -472 0
746 -705 472 0
-747 20 0
-747 -472 0
747 -20 472 0
-748 6 0
-748 747 0
748 -6 -747 0
-749 65 0
-749 475 0
749 -65 -475 0
-750 -5 0
-750 749 0
750 5 -749 0
-751 703 0
-751 -477 0
751 -703 477 0
-752 18 0
-752 -477 0
752 -18 477 0
-753 5 0
-753 752 0
753 -5 -752 0
-754 68 0
-754 480 0
754 -68 -480 0
-755 -4 0
-755 754 0
755 4 -754 0
-756 700 0
-756 -482 0
756 -700 482 0
-757 16 0
-757 -482 0
757 -16 482 0
-758 4 0
-758 757 0
758 -4 -757 0
-759 71 0
-759 485 0
759 -71 -485 0
-760 -3 0
-760 759 0
760 3 -759 0
-761 -701 0
-761 -341 0
761 701 341 0
762 -487 0
762 -761 0
-762 487 761 0
-763 -760 0
-763 762 0
763 760 -762 0
-764 -5 0
-764 -4 0
764 5 4 0
-765 -6 0
-765 764 0
765 6 -764 0
-766 -7 0
-766 765 0
766 7 -765 0
-767 -8 0
-767 766 0
767 8 -766 0
-768 -10 0
-768 767 0
768 10 -767 0
-769 -12 0
-769 768 0
769 12 -768 0
-770 3 0
-770 -769 0
770 -3 769 0
-771 763 0
-771 -770 0
771 -763 770 0
-772 -758 0
-772 771 0
772 758 -771 0
-773 -756 0
-773 772 0
773 756 -772 0
-774 -755 0
-774 773 0
774 755 -773 0
-775 -6 0
-775 -5 0
775 6 5 0
-776 -7 0
-776 775 0
776 7 -775 0
-777 -8 0
-777 776 0
777 8 -776 0
-778 -10 0
-778 777 0
778 10 -777 0
-779 -12 0
-779 778 0
779 12 -778 0
-780 4 0
-780 -779 0
780 -4 779 0
-781 774 0
-781 -780 0
781 -774 780 0
-782 -753 0
-782 781 0
782 753 -781 0
-783 -751 0
-783 782 0
783 751 -782 0
-784 -750 0
-784 783 0
784 750 -783 0
-785 -7 0
-785 -6 0
785 7 6 0
-786 -8 0
-786 785 0
786 8 -785 0
-787 -10 0
-787 786 0
787 10 -786 0
-788 -12 0
-788 787 0
788 12 -787 0
-789 5 0
-789 -788 0
789 -5 788 0
-790 784 0
-790 -789 0
790 -784 789 0
-791 -748 0
-791 790 0
791 748 -790 0
-792 -746 0
-792 791 0
792 746 -791 0
-793 -745 0
-793 792 0
793 745 -792 0
-794 -8 0
-794 -7 0
794 8 7 0
-795 -10 0
-795 794 0
795 10 -794 0
-796 -12 0
-796 795 0
796 12 -795 0
-797 6 0
-797 -796 0
797 -6 796 0
-798 793 0
-798 -797 0
798 -793 797 0
-799 -743 0
-799 798 0
799 743 -798 0
-800 -741 0
-800 799 0
800 741 -799 0
-801 -740 0
-801 800 0
801 740 -800 0
-802 -10 0
-802 -8 0
802 10 8 0
-803 -12 0
-803 802 0
803 12 -802 0
-804 7 0
-804 -803 0
804 -7 803 0
-805 801 0
-805 -804 0
805 -801 804 0
-806 -738 0
-806 805 0
806 738 -805 0
-807 -736 0
-807 806 0
807 736 -806 0
-808 -735 0
-808 807 0
808 735 -807 0
-809 -12 0
-809 -10 0
809 12 10 0
-810 8 0
-810 -809 0
810 -8 809 0
-811 808 0
-811 -810 0
811 -808 810 0
-812 -733 0
-812 811 0
812 733 -811 0
-813 -731 0
-813 812 0
813 731 -812 0
-814 -730 0
-814 813 0
814 730 -813 0
-815 26 0
-815 -452 0
815 -26 452 0
-816 -10 0
-816 -815 0
816 10 815 0
-817 12 0
-817 -816 0
817 -12 816 0
-818 814 0
-818 -817 0
818 -814 817 0
-819 -728 0
-819 818 0
819 728 -818 0
-820 -727 0
-820 819 0
820 727 -819 0
-821 -725 0
-821 820 0
821 725 -820 0
-822 -11 0
-822 -445 0
822 11 445 0
-823 9 0
-823 -822 0
823 -9 822 0
-824 821 0
-824 -823 0
824 -821 823 0
-825 -723 0
-825 824 0
825 723 -824 0
-826 -721 0
-826 825 0
826 721 -825 0
-827 -720 0
-827 826 0
827 720 -826 0
-828 -719 0
-828 827 0
828 719 -827 0
-829 -717 0
-829 828 0
829 717 -828 0
-830 -17 0
-830 -15 0
830 17 15 0
-831 -19 0
-831 830 0
831 19 -830 0
-832 2 0
-832 831 0
832 -2 -831 0
-833 701 0
-833 -832 0
833 -701 832 0
-834 829 0
-834 -833 0
834 -829 833 0
-835 -17 0
-835 15 0
835 17 -15 0
-836 -19 0
-836 835 0
836 19 -835 0
-837 -700 0
-837 -836 0
837 700 836 0
-838 700 0
-838 836 0
838 -700 -836 0
-839 2 0
-839 838 0
839 -2 -838 0
-840 -837 0
-840 -839 0
840 837 839 0
-841 834 0
-841 -840 0
841 -834 840 0
-842 17 0
-842 -15 0
842 -17 15 0
-843 -19 0
-843 842 0
843 19 -842 0
-844 -703 0
-844 -843 0
844 703 843 0
-845 703 0
-845 843 0
845 -703 -843 0
-846 2 0
-846 845 0
846 -2 -845 0
-847 -844 0
-847 -846 0
847 844 846 0
-848 841 0
-848 -847 0
848 -841 847 0
-849 17 0
-849 15 0
849 -17 -15 0
-850 -19 0
-850 849 0
850 19 -849 0
-851 -705 0
-851 -850 0
851 705 850 0
-852 705 0
-852 850 0
852 -705 -850 0
-853 2 0
-853 852 0
853 -2 -852 0
-854 -851 0
-854 -853 0
854 851 853 0
-855 848 0
-855 -854 0
855 -848 854 0
-856 19 0
-856 830 0
856 -19 -830 0
-857 -707 0
-857 -856 0
857 707 856 0
-858 707 0
-858 856 0
858 -707 -856 0
-859 2 0
-859 858 0
859 -2 -858 0
-860 -857 0
-860 -859 0
860 857 859 0
-861 855 0
-861 -860 0
861 -855 860 0
-862 19 0
-862 835 0
862 -19 -835 0
-863 -709 0
-863 -862 0
863 709 862 0
-864 709 0
-864 862 0
864 -709 -862 0
-865 2 0
-865 864 0
865 -2 -864 0
-866 -863 0
-866 -865 0
866 863 865 0
-867 861 0
-867 -866 0
867 -861 866 0
-868 19 0
-868 842 0
868 -19 -842 0
-869 -711 0
-869 -868 0
869 711 868 0
-870 711 0
-870 868 0
870 -711 -868 0
-871 2 0
-871 870 0
871 -2 -870 0
-872 -869 0
-872 -871 0
872 869 871 0
-873 867 0
-873 -872 0
873 -867 872 0
-874 19 0
-874 849 0
874 -19 -849 0
-875 -713 0
-875 -874 0
875 713 874 0
-876 713 0
-876 874 0
876 -713 -874 0
-877 2 0
-877 876 0
877 -2 -876 0
-878 -875 0
-878 -877 0
878 875 877 0
-879 873 0
-879 -878 0
879 -873 878 0
-880 -715 0
-880 879 0
880 715 -879 0
-881 -1 0
-881 -698 0
881 1 698 0
-882 880 0
-882 -881 0
882 -880 881 0
-883 -699 0
-883 882 0
883 699 -882 0
-884 -697 0
-884 883 0
884 697 -883 0
-885 -695 0
-885 884 0
885 695 -884 0
-886 -694 0
-886 885 0
886 694 -885 0
-887 -886 0
-887 512 0
887 886 -512 0
-888 118 0
-888 887 0
888 -118 -887 0
-889 -61 0
-889 -60 0
889 61 60 0
-890 -63 0
-890 -62 0
890 63 62 0
-891 889 0
-891 890 0
891 -889 -890 0
-892 -65 0
-892 -64 0
892 65 64 0
-893 -67 0
-893 -66 0
893 67 66 0
-894 892 0
-894 893 0
894 -892 -893 0
-895 891 0
-895 894 0
895 -891 -894 0
-896 -69 0
-896 -68 0
896 69 68 0
-897 -71 0
-897 -70 0
897 71 70 0
-898 896 0
-898 897 0
898 -896 -897 0
-899 -72 0
-899 898 0
899 72 -898 0
-900 895 0
-900 899 0
900 -895 -899 0
-901 -29 0
-901 -28 0
901 29 28 0
-902 -31 0
-902 -30 0
902 31 30 0
-903 901 0
-903 902 0
903 -901 -902 0
-904 -33 0
-904 -32 0
904 33 32 0
-905 -35 0
-905 -34 0
905 35 34 0
-906 904 0
-906 905 0
906 -904 -905 0
-907 903 0
-907 906 0
907 -903 -906 0
-908 -37 0
-908 -36 0
908 37 36 0
-909 -39 0
-909 -38 0
909 39 38 0
-910 908 0
-910 909 0
910 -908 -909 0
-911 -41 0
-911 -40 0
911 41 40 0
-912 -43 0
-912 -42 0
912 43 42 0
-913 911 0
-913 912 0
913 -911 -912 0
-914 910 0
-914 913 0
914 -910 -913 0
-915 907 0
-915 914 0
915 -907 -914 0
-916 -45 0
-916 -44 0
916 45 44 0
-917 -47 0
-917 -46 0
917 47 46 0
-918 916 0
-918 917 0
918 -916 -917 0
-919 -49 0
-919 -48 0
919 49 48 0
-920 -51 0
-920 -50 0
920 51 50 0
-921 919 0
-921 920 0
921 -919 -920 0
-922 918 0
-922 921 0
922 -918 -921 0
-923 -53 0
-923 -52 0
923 53 52 0
-924 -55 0
-924 -54 0
924 55 54 0
-925 923 0
-925 924 0
925 -923 -924 0
-926 -57 0
-926 -56 0
926 57 56 0
-927 -59 0
-927 -58 0
927 59 58 0
-928 926 0
-928 927 0
928 -926 -927 0
-929 925 0
-929 928 0
929 -925 -928 0
-930 922 0
-930 929 0
930 -922 -929 0
-931 915 0
-931 930 0
931 -915 -930 0
-932 900 0
-932 931 0
932 -900 -931 0
-933 -118 0
-933 932 0
933 118 -932 0
-934 -888 0
-934 -933 0
934 888 933 0
-935 -693 0
-935 934 0
935 693 -934 0
-936 -302 0
-936 935 0
936 302 -935 0
936 0
